instances/shortest_path/discrete_knapsack_uncertainty/nohadani_4_3.lp
\ Model nohadani_4_3
\ LP format - for model browsing. Use MPS format to capture full model detail.
\ Signature: 0x26b3cf7f3313a25f
Minimize
  24.59674775249769 y[0,1] + 38.89730067755345 y[0,2]
   + 75.58438992278762 y[0,3] + 24.59674775249769 y[1,0]
   + 42.80186911806539 y[1,2] + 38.89730067755345 y[2,0]
   + 42.80186911806539 y[2,1] + 36.68787265568828 y[2,3]
   + 75.58438992278762 y[3,0] + 36.68787265568828 y[3,2] + x[0,1] + x[0,2]
   + x[0,3] + x[1,0] + x[1,2] + x[2,0] + x[2,1] + x[2,3] + x[3,0] + x[3,2]
   + 2.459674775249769 r[0,1] + 3.889730067755345 r[0,2]
   + 7.558438992278763 r[0,3] + 2.459674775249769 r[1,0]
   + 4.280186911806539 r[1,2] + 3.889730067755345 r[2,0]
   + 4.280186911806539 r[2,1] + 3.668787265568828 r[2,3]
   + 7.558438992278763 r[3,0] + 3.668787265568828 r[3,2]
Subject To
 flow_cons_inner_nodes[0]: - y[0,1] - y[0,2] - y[0,3] + y[1,0] + y[2,0]
   + y[3,0] = 0
 flow_cons_inner_nodes[2]: y[0,2] + y[1,2] - y[2,0] - y[2,1] - y[2,3]
   + y[3,2] = 0
 flow_cons_source: - y[0,1] + y[1,0] + y[1,2] - y[2,1] = 1
 flow_cons_target: y[0,3] + y[2,3] - y[3,0] - y[3,2] = 1
 primal_lower: 6.168961450572892 x[0,1] + 1.68182475111091 x[0,2]
   + 4.0514035426636 x[0,3] + 5.739187997933008 x[1,0]
   + 4.616991449404387 x[1,2] + 2.917701246237358 x[2,0]
   + 3.48638702087784 x[2,1] + 7.897794581280217 x[2,3]
   + 8.336342074998973 x[3,0] + 6.95563382563505 x[3,2] + 4 u[0,1]
   + 40 u[0,2] + 46 u[0,3] + 43 u[1,0] + 44 u[1,2] + 78 u[2,0] + 85 u[2,1]
   + 48 u[2,3] + 77 u[3,0] + 46 u[3,2] <= 85
 mccormick1[0,1]: - u[0,1] + r[0,1] <= 0
 mccormick1[0,2]: - u[0,2] + r[0,2] <= 0
 mccormick1[0,3]: - u[0,3] + r[0,3] <= 0
 mccormick1[1,0]: - u[1,0] + r[1,0] <= 0
 mccormick1[1,2]: - u[1,2] + r[1,2] <= 0
 mccormick1[2,0]: - u[2,0] + r[2,0] <= 0
 mccormick1[2,1]: - u[2,1] + r[2,1] <= 0
 mccormick1[2,3]: - u[2,3] + r[2,3] <= 0
 mccormick1[3,0]: - u[3,0] + r[3,0] <= 0
 mccormick1[3,2]: - u[3,2] + r[3,2] <= 0
 mccormick2[0,1]: - y[0,1] + r[0,1] <= 0
 mccormick2[0,2]: - y[0,2] + r[0,2] <= 0
 mccormick2[0,3]: - y[0,3] + r[0,3] <= 0
 mccormick2[1,0]: - y[1,0] + r[1,0] <= 0
 mccormick2[1,2]: - y[1,2] + r[1,2] <= 0
 mccormick2[2,0]: - y[2,0] + r[2,0] <= 0
 mccormick2[2,1]: - y[2,1] + r[2,1] <= 0
 mccormick2[2,3]: - y[2,3] + r[2,3] <= 0
 mccormick2[3,0]: - y[3,0] + r[3,0] <= 0
 mccormick2[3,2]: - y[3,2] + r[3,2] <= 0
 mccormick3[0,1]: - y[0,1] - u[0,1] + r[0,1] >= -1
 mccormick3[0,2]: - y[0,2] - u[0,2] + r[0,2] >= -1
 mccormick3[0,3]: - y[0,3] - u[0,3] + r[0,3] >= -1
 mccormick3[1,0]: - y[1,0] - u[1,0] + r[1,0] >= -1
 mccormick3[1,2]: - y[1,2] - u[1,2] + r[1,2] >= -1
 mccormick3[2,0]: - y[2,0] - u[2,0] + r[2,0] >= -1
 mccormick3[2,1]: - y[2,1] - u[2,1] + r[2,1] >= -1
 mccormick3[2,3]: - y[2,3] - u[2,3] + r[2,3] >= -1
 mccormick3[3,0]: - y[3,0] - u[3,0] + r[3,0] >= -1
 mccormick3[3,2]: - y[3,2] - u[3,2] + r[3,2] >= -1
Bounds
Binaries
 y[0,1] y[0,2] y[0,3] y[1,0] y[1,2] y[2,0] y[2,1] y[2,3] y[3,0] y[3,2]
 x[0,1] x[0,2] x[0,3] x[1,0] x[1,2] x[2,0] x[2,1] x[2,3] x[3,0] x[3,2]
 u[0,1] u[0,2] u[0,3] u[1,0] u[1,2] u[2,0] u[2,1] u[2,3] u[3,0] u[3,2]
 r[0,1] r[0,2] r[0,3] r[1,0] r[1,2] r[2,0] r[2,1] r[2,3] r[3,0] r[3,2]
End
